db/inputs/1736220402133301661024443213911670249.smt2
(set-logic QF_FP)
(declare-const x0 (_ FloatingPoint 8 24))
(declare-const x1 (_ FloatingPoint 8 24))
(declare-const x2 (_ FloatingPoint 8 24))
(declare-const x3 (_ FloatingPoint 8 24))
(declare-const x4 (_ FloatingPoint 8 24))
(declare-const x5 (_ FloatingPoint 8 24))
(declare-const x6 (_ FloatingPoint 8 24))
(assert (fp.lt (fp.mul RNE (fp.div RNE x5 x2) (fp.sub RNE x4 x1)) (fp.add RNE (fp.mul RNE x2 x2) (fp.div RNE x4 x3))))
(assert (fp.lt (fp.neg (fp.mul RNE x6 x2)) (fp.div RNE (fp.sub RNE x2 x5) (fp.neg x2))))
(assert (fp.gt (fp.add RNE (fp.sub RNE x3 x4) (fp.sub RNE x3 x6)) (fp.mul RNE (fp.neg x5) (fp.add RNE x1 x1))))
(assert (fp.lt (fp.neg (fp.sub RNE x4 x6)) (fp.add RNE (fp.add RNE x5 x2) (fp.div RNE x2 x0))))
(assert (fp.gt (fp.add RNE (fp.neg x6) (fp.mul RNE x4 x2)) (fp.sub RNE (fp.div RNE x4 x4) (fp.div RNE x4 x3))))
(assert (fp.eq (fp.div RNE (fp.add RNE x5 x4) (fp.sub RNE x0 x4)) (fp.add RNE (fp.mul RNE x2 x6) (fp.add RNE x2 x4))))
(check-sat)
