db/data/1736220402133301661024443213911670249.z3.out
sat
-------------------
392.242618679
